7269207400131710158509,12,1,2,08,4,1,2,010,12,1,2,08,11,1,2,05,11,1,2,011,9,1,2,06,3,1,2,08,10,1,2,013,12,1,2,02,9,1,2,08,5,1,2,07,12,1,2,06,13,1,2,02,8,1,2,013,13,1,2,015,7,1,2,015,5,1,2,011,2,1,2,04,10,1,2,014,11,1,2,05,6,1,2,013,13,1,2,015,1,1,2,014,10,1,2,07,4,1,2,010,5,1,2,06,1,1,2,014,3,1,2,09,2,1,2,02,15,1,2,06,5,1,2,02,13,1,2,013,11,1,2,02,1,1,2,01,1,1,2,04,11,1,2,07,1,1,2,02,2,1,2,06,12,1,2,014,12,1,2,015,13,1,2,06,11,1,2,06,13,1,2,06,7,1,2,012,9,1,2,011,1,1,2,06,11,1,2,012,13,1,2,04,7,1,2,05,3,1,2,0